110 425
12 9 
12 9 
12 9 
12 9 
12 9 
12 9 
11 2 
11 2 
17 13 
17 13 
17 13 
17 13 
17 13 
21 10 
21 10 
21 10 
21 10 
18 14 
18 14 
18 14 
18 14 
18 14 
18 14 
17 3 
17 3 
17 3 
18 17 
18 17 
20 8 
20 8 
20 8 
12 2 
12 2 
12 2 
12 2 
15 17 
15 17 
15 17 
15 17 
15 17 
15 17 
15 17 
13 8 
13 8 
13 8 
13 8 
5 5 
5 5 
15 12 
15 12 
15 12 
15 12 
16 12 
16 12 
16 12 
16 21 
16 21 
13 8 
13 8 
13 8 
25 13 
25 13 
7 9 
7 9 
7 9 
7 9 
7 9 
8 9 
8 9 
8 9 
8 9 
11 16 
11 16 
13 25 
13 25 
13 25 
13 25 
13 25 
13 25 
24 15 
24 15 
24 15 
24 15 
24 15 
13 21 
13 21 
13 21 
13 21 
12 9 
12 9 
12 9 
12 9 
12 9 
12 9 
12 9 
12 9 
15 15 
15 15 
19 13 
19 13 
19 13 
16 14 
16 14 
16 14 
16 14 
16 14 
16 14 
21 9 
21 9 
21 9 
